40
    88    77    95    82    40    84    17    79    78    60    23    32    41    78     1    76    92    62    16    50    26    92    16    98    64    99    22    65    56    68    36   100    79    37    38    55    40    97    84    86
    10     9     6     1     3     6     4     6     6     2     6     4     6     1     6     7     9     1     8     8     8     5     2     9     6     4     1     6     2     3    10     3     6     6     9     7     6     9     1     5
  2380  2123  2763  2365  1172  1171  1943  1878  1732  1367  1370   986  1583  1114  1156  2097  1554  2193  1594  1622  1725  1454  1528  2535  2205  2885  1562  2664  1016  1537  2429  1427  2647  1422  2377  1712  2335  1377  1354  1078
